32	0

0	4	2	3	4	5
9	2	8	10
5	2	6	9
5	2	6	9
1	2	6	9
3	1	7
1	2	8	10
6	2	11	12
5	1	10
4	2	11	12
10	2	13	14
1	2	13	14
8	2	15	16
3	2	15	16
8	2	17	19
8	2	17	19
6	3	18	21	22
4	1	20
9	3	20	21	22
9	1	23
8	1	23
9	1	23
3	2	24	25
4	1	26
2	1	26
3	1	27
2	1	28
1	1	29
5	2	30	31
5	1	32
4	1	32
0	0
